Normalized Data/p03_23_normalized_split0.vrp
NAME:p03_23_NORMALIZED_split
BEST_KNOWN: 0
COMMENT: 0
DIMENSION: 407
CAPACITY: 100
EDGE_WEIGHT_FORMAT: FUNCTION
EDGE_WEIGHT_TYPE: EXACT_2D
NODE_COORD_SECTION
1 0.00000 0.00000
2 -45 5
3 -45 5
4 -45 5
5 -10 -15
6 -10 -15
7 -10 -15
8 -10 -15
9 -10 -15
10 -10 -15
11 -10 -15
12 46 48
13 46 48
14 -43 30
15 -43 30
16 -43 30
17 -43 30
18 -43 30
19 -20 -43
20 -20 -43
21 -20 -43
22 -20 -43
23 18 -34
24 18 -34
25 18 -34
26 41 47
27 41 47
28 41 47
29 35 32
30 35 32
31 35 32
32 5 23
33 5 23
34 5 23
35 5 23
36 5 23
37 -50 14
38 -50 14
39 -50 14
40 -50 14
41 -50 50
42 -50 50
43 -50 50
44 -50 50
45 -50 50
46 -50 50
47 -50 50
48 -4 48
49 -4 48
50 -4 48
51 -5 -34
52 -5 -34
53 -5 -34
54 -19 -48
55 -19 -48
56 -19 -48
57 -19 -48
58 -19 -48
59 -19 -48
60 20 -1
61 20 -1
62 20 -1
63 20 -1
64 -11 -49
65 -11 -49
66 -11 -49
67 -50 -3
68 -50 -3
69 -50 -3
70 -50 -3
71 -50 -3
72 -50 -3
73 25 -22
74 25 -22
75 45 -46
76 45 -46
77 45 -46
78 45 -46
79 45 -46
80 45 -46
81 -48 -29
82 -48 -29
83 -48 -29
84 -48 -29
85 -48 -29
86 20 -46
87 20 -46
88 20 -46
89 20 -46
90 20 -46
91 -46 24
92 -46 24
93 -46 24
94 -46 24
95 -46 24
96 -46 24
97 -1 10
98 -1 10
99 -1 10
100 -1 10
101 -1 10
102 -21 42
103 -21 42
104 -21 42
105 -21 42
106 -17 -25
107 -17 -25
108 -17 -25
109 -17 -25
110 -17 -25
111 -17 8
112 -28 21
113 -28 21
114 -28 21
115 36 7
116 36 7
117 36 7
118 3 -19
119 3 -19
120 3 -19
121 3 -19
122 3 -19
123 8 -48
124 8 -48
125 8 -48
126 8 -48
127 28 -40
128 28 -40
129 28 -40
130 28 -40
131 22 11
132 22 11
133 22 11
134 22 11
135 -10 12
136 -10 12
137 -10 12
138 -33 21
139 -33 21
140 -33 21
141 16 48
142 16 48
143 16 48
144 -12 -20
145 -12 -20
146 -12 -20
147 -12 -20
148 -41 47
149 -41 47
150 -41 47
151 -41 47
152 -41 47
153 -41 47
154 -44 -46
155 -44 -46
156 -44 -46
157 -44 -46
158 -44 -46
159 -44 -46
160 -44 -46
161 2 19
162 2 19
163 2 19
164 37 -3
165 37 -3
166 21 -49
167 21 -49
168 21 -49
169 21 -49
170 21 -49
171 21 -49
172 -28 19
173 -28 19
174 -28 19
175 -28 19
176 -28 19
177 16 -28
178 16 -28
179 -5 -13
180 -5 -13
181 -5 -13
182 -5 -13
183 -5 -13
184 -5 -13
185 -48 -3
186 -48 -3
187 -41 17
188 -41 17
189 -47 42
190 -47 42
191 -47 42
192 -47 42
193 -47 42
194 -37 1
195 -39 -43
196 -39 -43
197 -39 -43
198 -24 -9
199 -24 -9
200 -24 -9
201 -24 -9
202 -24 -9
203 32 -8
204 32 -8
205 32 -8
206 32 -8
207 5 -28
208 5 -28
209 25 17
210 25 17
211 25 17
212 48 10
213 48 10
214 48 10
215 48 10
216 48 10
217 48 10
218 20 1
219 20 1
220 20 1
221 20 1
222 20 1
223 20 1
224 7 21
225 7 21
226 7 21
227 47 -23
228 47 -23
229 47 -23
230 47 -23
231 47 -23
232 15 -6
233 15 -6
234 15 -6
235 41 -26
236 41 -26
237 41 -26
238 41 -26
239 -4 -33
240 -4 -33
241 -4 -33
242 -4 -33
243 -4 -33
244 30 -4
245 30 -4
246 30 -4
247 30 -4
248 30 -4
249 30 -4
250 30 -4
251 31 -38
252 31 -38
253 31 -38
254 31 -38
255 -26 -31
256 -26 -31
257 -26 -31
258 -33 15
259 -33 15
260 -50 49
261 -50 49
262 -50 49
263 -23 39
264 -23 39
265 -23 39
266 16 -11
267 16 -11
268 -47 -43
269 -47 -43
270 -47 -43
271 -47 -43
272 -47 -43
273 -47 -43
274 30 -17
275 30 -17
276 30 -17
277 30 -17
278 30 -17
279 30 -17
280 15 39
281 15 39
282 15 39
283 15 39
284 4 21
285 4 21
286 4 21
287 8 36
288 8 36
289 8 36
290 1 -24
291 1 -24
292 1 -24
293 1 -24
294 1 -24
295 45 -7
296 45 -7
297 45 -7
298 45 -7
299 20 1
300 20 1
301 20 1
302 20 1
303 20 1
304 34 12
305 34 12
306 30 -4
307 30 -4
308 30 -4
309 30 -4
310 8 34
311 8 34
312 8 34
313 -33 35
314 -33 35
315 -33 35
316 -33 35
317 -33 35
318 -33 35
319 -41 -20
320 -41 -20
321 -41 -20
322 -41 -20
323 -41 -20
324 -41 -20
325 -41 7
326 -41 7
327 -41 7
328 -41 7
329 -49 6
330 -49 6
331 -49 6
332 -49 6
333 -49 6
334 -49 6
335 -49 6
336 1 48
337 1 48
338 1 48
339 1 48
340 22 37
341 22 37
342 22 37
343 22 37
344 -43 16
345 -43 16
346 49 14
347 49 14
348 49 14
349 49 14
350 49 14
351 49 14
352 -26 4
353 -26 4
354 -23 31
355 -23 31
356 -23 31
357 -23 31
358 -23 31
359 6 34
360 6 34
361 6 34
362 10 -5
363 10 -5
364 10 -5
365 -36 1
366 -36 1
367 -36 1
368 -36 1
369 -36 1
370 -13 33
371 -13 33
372 -13 33
373 -13 33
374 35 29
375 35 29
376 35 29
377 -9 -12
378 -9 -12
379 -9 -12
380 -9 -12
381 -9 -12
382 -9 -12
383 -9 -12
384 13 41
385 13 41
386 13 41
387 13 41
388 -49 -8
389 -49 -8
390 3 -18
391 3 -18
392 3 -18
393 3 -18
394 3 -18
395 3 -18
396 3 -18
397 -26 -45
398 1 -14
399 1 -14
400 1 -14
401 1 -14
402 1 -14
403 -28 -44
404 -28 -44
405 -28 -44
406 -28 -44
407 -28 -44
DEMAND_SECTION
1 0
2 20
3 1
4 1
5 20
6 20
7 5
8 1
9 1
10 1
11 1
12 20
13 10
14 20
15 1
16 1
17 1
18 1
19 10
20 1
21 1
22 1
23 20
24 10
25 1
26 20
27 10
28 1
29 20
30 5
31 1
32 20
33 20
34 1
35 1
36 1
37 10
38 1
39 1
40 1
41 20
42 20
43 5
44 1
45 1
46 1
47 1
48 20
49 5
50 1
51 10
52 1
53 1
54 20
55 10
56 5
57 1
58 1
59 1
60 10
61 1
62 1
63 1
64 20
65 10
66 1
67 20
68 20
69 1
70 1
71 1
72 1
73 20
74 5
75 20
76 10
77 5
78 1
79 1
80 1
81 20
82 20
83 1
84 1
85 1
86 20
87 20
88 5
89 1
90 1
91 20
92 5
93 1
94 1
95 1
96 1
97 20
98 5
99 1
100 1
101 1
102 10
103 1
104 1
105 1
106 20
107 10
108 5
109 1
110 1
111 20
112 20
113 20
114 5
115 20
116 20
117 1
118 20
119 20
120 5
121 1
122 1
123 20
124 20
125 1
126 1
127 20
128 20
129 5
130 1
131 20
132 10
133 5
134 1
135 20
136 5
137 1
138 20
139 5
140 1
141 20
142 10
143 1
144 20
145 20
146 5
147 1
148 20
149 20
150 5
151 1
152 1
153 1
154 20
155 20
156 5
157 1
158 1
159 1
160 1
161 20
162 10
163 5
164 10
165 5
166 20
167 20
168 1
169 1
170 1
171 1
172 20
173 10
174 5
175 1
176 1
177 20
178 5
179 20
180 20
181 5
182 1
183 1
184 1
185 20
186 10
187 20
188 10
189 20
190 5
191 1
192 1
193 1
194 20
195 20
196 20
197 10
198 20
199 10
200 5
201 1
202 1
203 20
204 20
205 1
206 1
207 10
208 5
209 20
210 10
211 1
212 20
213 10
214 1
215 1
216 1
217 1
218 20
219 5
220 1
221 1
222 1
223 1
224 20
225 10
226 5
227 10
228 5
229 1
230 1
231 1
232 20
233 20
234 1
235 20
236 10
237 1
238 1
239 20
240 20
241 1
242 1
243 1
244 20
245 20
246 5
247 1
248 1
249 1
250 1
251 10
252 5
253 1
254 1
255 20
256 10
257 1
258 10
259 5
260 10
261 1
262 1
263 10
264 5
265 1
266 20
267 1
268 20
269 20
270 5
271 1
272 1
273 1
274 20
275 20
276 1
277 1
278 1
279 1
280 20
281 1
282 1
283 1
284 20
285 5
286 1
287 20
288 10
289 1
290 10
291 1
292 1
293 1
294 1
295 20
296 10
297 5
298 1
299 20
300 10
301 1
302 1
303 1
304 20
305 10
306 10
307 1
308 1
309 1
310 10
311 5
312 1
313 20
314 10
315 1
316 1
317 1
318 1
319 20
320 5
321 1
322 1
323 1
324 1
325 20
326 5
327 1
328 1
329 20
330 20
331 5
332 1
333 1
334 1
335 1
336 20
337 20
338 5
339 1
340 20
341 1
342 1
343 1
344 10
345 5
346 20
347 20
348 5
349 1
350 1
351 1
352 10
353 5
354 20
355 5
356 1
357 1
358 1
359 10
360 5
361 1
362 20
363 20
364 5
365 20
366 20
367 1
368 1
369 1
370 20
371 5
372 1
373 1
374 20
375 5
376 1
377 20
378 10
379 5
380 1
381 1
382 1
383 1
384 20
385 10
386 5
387 1
388 20
389 10
390 20
391 10
392 5
393 1
394 1
395 1
396 1
397 20
398 20
399 10
400 5
401 1
402 1
403 20
404 10
405 1
406 1
407 1
DEPOT_SECTION
1
-1
EOF