Normalized Data/p03_23_normalized_split0.sol
406 -3 2 1 38 36 39 37 343 344 187 186 258 257 -8 10 7 9 6 5 4 146 143 144 145 -12 11 25 26 27 141 142 140 225 -19 20 18 64 63 65 125 122 124 123 207 206 -21 53 58 56 54 55 57 396 403 404 402 405 406 107 109 -42 41 45 44 46 40 43 260 259 261 189 191 190 188 192 16 14 138 139 175 174 -52 50 51 238 240 242 241 239 289 292 291 293 290 394 395 392 393 389 -67 71 70 68 69 328 329 332 333 331 330 334 325 326 327 324 -86 89 87 85 88 169 166 167 168 170 165 129 128 -94 91 90 95 93 92 15 13 17 147 149 148 150 152 151 -98 97 100 96 99 161 160 162 135 134 136 -102 103 104 101 264 263 262 312 315 316 313 317 314 353 357 355 354 356 -108 106 105 256 255 254 197 199 201 200 198 -110 352 351 193 364 367 366 365 368 -111 112 113 137 172 173 171 -114 115 116 296 295 294 297 205 204 232 233 -132 130 131 133 304 303 209 208 210 -154 153 157 158 156 159 155 195 194 196 -176 22 24 23 72 73 265 266 -177 126 127 77 74 76 75 78 79 253 250 252 251 -180 178 179 181 182 183 377 380 379 382 381 378 376 -185 184 66 388 387 318 -203 202 243 307 249 305 244 247 248 308 245 -223 224 31 34 32 33 35 284 285 283 -226 228 230 229 227 235 236 234 237 275 274 277 273 278 276 -231 60 59 62 61 221 218 217 220 222 300 219 301 299 302 298 -272 270 268 269 271 267 84 80 81 82 83 321 319 320 323 322 -280 279 282 281 339 340 342 341 28 30 29 373 374 375 -306 246 164 163 216 212 213 214 211 215 345 349 348 350 346 347 -311 309 310 386 384 383 385 288 286 287 359 360 358 -338 337 335 336 49 47 48 369 371 372 370 -361 363 362 -391 390 120 121 117 118 119 401 397 398 399 400 0 





OBJ=
3075.564
BEST_KNOWN=
0.000